(set-logic QF_S)
(declare-const x String)
(declare-const y String)
(declare-const m String)
(declare-const n String)
(assert (str.in.re x (re.++ (re.* (str.to.re "H")) (str.to.re "<"))))
(assert (str.in.re x (re.union (re.* (str.to.re "p")) (str.to.re "c"))))
(assert (str.in.re x (re.union (re.++ (re.+ (str.to.re "c")) (re.+ (str.to.re "b"))) (str.to.re "U"))))
(check-sat)
